(declare-fun ExpandObjSwitcher () Real)
(declare-fun CreateAsClass () Bool)
(declare-fun ExpandObjSwitcher_2 () Real)
(declare-fun Constructed_Argument_t () String)
(assert (= ExpandObjSwitcher 1.0))
(assert (not CreateAsClass))
(assert (not (= ExpandObjSwitcher_2 0.0)))
(assert (not (= ExpandObjSwitcher_2 1.0)))
(assert (not (= ExpandObjSwitcher_2 2.0)))
(assert (not (= ExpandObjSwitcher_2 3.0)))
(assert (not (= ExpandObjSwitcher_2 4.0)))
(assert (not (= ExpandObjSwitcher_2 5.0)))
(assert (not (= ExpandObjSwitcher_2 6.0)))
(assert (not (= ExpandObjSwitcher_2 7.0)))
(assert (= ExpandObjSwitcher_2 8.0))
(assert (not (= Constructed_Argument_t "string")))
(assert (not (= Constructed_Argument_t "number")))
(assert (not (= Constructed_Argument_t "boolean")))
(assert (not (= Constructed_Argument_t "object")))
(assert (not (= Constructed_Argument_t "array_number")))
(assert (= Constructed_Argument_t "array_string"))
(check-sat)
